Problem:    
Rows:       256
Columns:    89 (72 integer, 72 binary)
Non-zeros:  800
Status:     INTEGER OPTIMAL
Objective:  value = 54.570633 (MINimum)

   No.   Row name        Activity     Lower bound   Upper bound
------ ------------    ------------- ------------- -------------
     1 r.5                   54.5706             0               
     2 r.6                  -989.901      -991.342               
     3 r.7                   1054.57             0               
     4 r.8                  -977.479      -983.545               
     5 r.9                   54.5706             0               
     6 r.10                  45.0358      -989.048               
     7 r.11                  1054.57             0               
     8 r.12                 -954.964      -977.485               
     9 r.13                  1054.57             0               
    10 r.14                 -971.361       -987.48               
    11 r.15                  54.5706             0               
    12 r.16                  45.0358      -970.772               
    13 r.17                  1054.57             0               
    14 r.18                 -983.881      -993.751               
    15 r.19                  54.5706             0               
    16 r.20                  16.1192       -979.91               
    17 r.21                  1054.57             0               
    18 r.22                  -990.13      -991.571               
    19 r.23                  54.5706             0               
    20 r.24                  28.6394      -980.684               
    21 r.25                  1054.57             0               
    22 r.26                 -998.559      -998.559               
    23 r.27                  54.5706             0               
    24 r.28                   1.4411      -984.678               
    25 r.29                  1054.57             0               
    26 r.30                 -945.429      -974.069               
    27 r.31                  54.5706             0               
    28 r.32                  54.5706      -954.723               
    29 r.33                  54.5706             0               
    30 r.34                  54.5706      -978.868               
    31 r.35                  1054.57             0               
    32 r.36                 -945.429      -990.465               
    33 r.37                        1             1             = 
    34 r.38                        1             1             = 
    35 r.39                        1             1             = 
    36 r.40                        1             1             = 
    37 r.41                        1             1             = 
    38 r.42                        1             1             = 
    39 r.43                        1             1             = 
    40 r.44                        1             1             = 
    41 r.45                     1000             2               
    42 r.46                    -1000         -1001               
    43 r.47                  3034.94      -989.048               
    44 r.48                        2             2               
    45 r.49                       -2         -1001               
    46 r.50                 -977.485      -977.485               
    47 r.51                     1001             2               
    48 r.52                    -1001         -1001               
    49 r.53                  3018.54       -987.48               
    50 r.54                     1001             2               
    51 r.55                    -1001         -1001               
    52 r.56                  2022.51      -970.772               
    53 r.57                     1001             2               
    54 r.58                    -1001         -1001               
    55 r.59                  3006.02      -993.751               
    56 r.60                     1001             2               
    57 r.61                    -1001         -1001               
    58 r.62                   1993.6       -979.91               
    59 r.63                     1001             2               
    60 r.64                    -1001         -1001               
    61 r.65                  2999.77      -991.571               
    62 r.66                     1001             2               
    63 r.67                    -1001         -1001               
    64 r.68                  2006.12      -980.684               
    65 r.69                 -991.342      -991.342               
    66 r.70                  -978.92      -983.545               
    67 r.71                 -991.342      -991.342               
    68 r.72                  -978.92      -983.545               
    69 r.73                  44.4716      -974.069               
    70 r.74                  1044.47      -954.723               
    71 r.75                 -967.951      -974.069               
    72 r.76                  32.0493      -954.723               
    73 r.77                     1000             2               
    74 r.78                    -1000         -1001               
    75 r.79                  3044.47      -978.868               
    76 r.80                        2             2               
    77 r.81                       -2         -1001               
    78 r.82                 -967.951      -990.465               
    79 r.83                     1000             2               
    80 r.84                    -1000         -1001               
    81 r.85                  965.063        8.6579               
    82 r.86                        2             2               
    83 r.87                       -2         -1001               
    84 r.88                  977.485       16.4547               
    85 r.89                     1001             2               
    86 r.90                    -1001         -1001               
    87 r.91                   1983.6       -987.48               
    88 r.92                     1001             2               
    89 r.93                    -1001         -1001               
    90 r.94                     2000      -970.772               
    91 r.95                     1001             2               
    92 r.96                    -1001         -1001               
    93 r.97                  1971.08      -993.751               
    94 r.98                     1001             2               
    95 r.99                    -1001         -1001               
    96 r.100                 1971.08       -979.91               
    97 r.101                    1001             2               
    98 r.102                   -1001         -1001               
    99 r.103                 1964.83      -991.571               
   100 r.104                    1001             2               
   101 r.105                   -1001         -1001               
   102 r.106                  1983.6      -980.684               
   103 r.107                 43.5947      -989.048               
   104 r.108                -956.405      -977.485               
   105 r.109                 43.5947      -989.048               
   106 r.110                -956.405      -977.485               
   107 r.111                    1001             2               
   108 r.112                   -1001         -1001               
   109 r.113                 2009.53      -974.069               
   110 r.114                    1001             2               
   111 r.115                   -1001         -1001               
   112 r.116                 2009.53      -954.723               
   113 r.117                 9.53483      -978.868               
   114 r.118                -990.465      -990.465               
   115 r.119                 9.53483      -978.868               
   116 r.120                -990.465      -990.465               
   117 r.121                    1001             2               
   118 r.122                   -1001         -1001               
   119 r.123                  981.46        8.6579               
   120 r.124                    1001             2               
   121 r.125                   -1001         -1001               
   122 r.126                 1977.49       16.4547               
   123 r.127                    1001             2               
   124 r.128                   -1001         -1001               
   125 r.129                  2016.4       10.9516               
   126 r.130                    1001             2               
   127 r.131                   -1001         -1001               
   128 r.132                    2000       22.5145               
   129 r.133                 -987.48       -987.48               
   130 r.134                 28.9166      -970.772               
   131 r.135                 -987.48       -987.48               
   132 r.136                 28.9166      -970.772               
   133 r.137                       2             2               
   134 r.138                      -2         -1001               
   135 r.139                -18.7691      -991.571               
   136 r.140                    1000             2               
   137 r.141                   -1000         -1001               
   138 r.142                  1983.6      -980.684               
   139 r.143                -972.802       -987.48               
   140 r.144                 43.5947      -970.772               
   141 r.145                -972.802       -987.48               
   142 r.146                 43.5947      -970.772               
   143 r.147                       2             2               
   144 r.148                      -2         -1001               
   145 r.149                -974.069      -974.069               
   146 r.150                    1000             2               
   147 r.151                   -1000         -1001               
   148 r.152                 2009.53      -954.723               
   149 r.153                 25.9312      -978.868               
   150 r.154                -974.069      -990.465               
   151 r.155                 9.53483      -978.868               
   152 r.156                -990.465      -990.465               
   153 r.157                    1001             2               
   154 r.158                   -1001         -1001               
   155 r.159                  993.98        8.6579               
   156 r.160                    1001             2               
   157 r.161                   -1001         -1001               
   158 r.162                  2006.4       16.4547               
   159 r.163                    1001             2               
   160 r.164                   -1001         -1001               
   161 r.165                 2028.92       10.9516               
   162 r.166                    1001             2               
   163 r.167                   -1001         -1001               
   164 r.168                 2028.92       22.5145               
   165 r.169                       2             2               
   166 r.170                      -2         -1001               
   167 r.171                -6.24892      -991.571               
   168 r.172                    1000             2               
   169 r.173                   -1000         -1001               
   170 r.174                 2012.52      -980.684               
   171 r.175                -985.322      -993.751               
   172 r.176                 14.6781       -979.91               
   173 r.177                -985.322      -993.751               
   174 r.178                 14.6781       -979.91               
   175 r.179                       2             2               
   176 r.180                      -2         -1001               
   177 r.181                -961.549      -974.069               
   178 r.182                    1000             2               
   179 r.183                   -1000         -1001               
   180 r.184                 2038.45      -954.723               
   181 r.185                 38.4514      -978.868               
   182 r.186                -961.549      -990.465               
   183 r.187                 38.4514      -978.868               
   184 r.188                -961.549      -990.465               
   185 r.189                    1001             2               
   186 r.190                   -1001         -1001               
   187 r.191                 1000.23        8.6579               
   188 r.192                    1001             2               
   189 r.193                   -1001         -1001               
   190 r.194                 1993.88       16.4547               
   191 r.195                    1001             2               
   192 r.196                   -1001         -1001               
   193 r.197                 2035.17       10.9516               
   194 r.198                    1001             2               
   195 r.199                   -1001         -1001               
   196 r.200                  2016.4       22.5145               
   197 r.201                       2             2               
   198 r.202                      -2         -1001               
   199 r.203                 18.7691       12.5202               
   200 r.204                    1000             2               
   201 r.205                   -1000         -1001               
   202 r.206                  2016.4       29.2275               
   203 r.207                       2             2               
   204 r.208                      -2         -1001               
   205 r.209                 6.24892       6.24892               
   206 r.210                    1000             2               
   207 r.211                   -1000         -1001               
   208 r.212                 1987.48       20.0895               
   209 r.213                -991.571      -991.571               
   210 r.214                 27.1983      -980.684               
   211 r.215                -991.571      -991.571               
   212 r.216                 27.1983      -980.684               
   213 r.217                  -955.3      -974.069               
   214 r.218                 44.7003      -954.723               
   215 r.219                -974.069      -974.069               
   216 r.220                 25.9312      -954.723               
   217 r.221                 44.7003      -978.868               
   218 r.222                  -955.3      -990.465               
   219 r.223                 25.9312      -978.868               
   220 r.224                -974.069      -990.465               
   221 r.225                    1001             2               
   222 r.226                   -1001         -1001               
   223 r.227                 1990.47       10.9516               
   224 r.228                    1001             2               
   225 r.229                   -1001         -1001               
   226 r.230                 1990.47       22.5145               
   227 r.231                       2             2               
   228 r.232                      -2         -1001               
   229 r.233                 974.069       12.5202               
   230 r.234                    1000             2               
   231 r.235                   -1000         -1001               
   232 r.236                 1990.47       29.2275               
   233 r.237                       2             2               
   234 r.238                      -2         -1001               
   235 r.239                 961.549       6.24892               
   236 r.240                    1000             2               
   237 r.241                   -1000         -1001               
   238 r.242                 1961.55       20.0895               
   239 r.243                    1001             2               
   240 r.244                   -1001         -1001               
   241 r.245                    2000      -978.868               
   242 r.246                    1001             2               
   243 r.247                   -1001         -1001               
   244 r.248                    2000      -990.465               
   245 r.249                    1000             2               
   246 r.250                   -1000         -1001               
   247 r.251                 955.528        8.6579               
   248 r.252                       2             2               
   249 r.253                      -2         -1001               
   250 r.254                 967.951       16.4547               
   251 r.255                    1001             2               
   252 r.256                   -1001         -1001               
   253 r.257                    2000       25.9312               
   254 r.258                    1001             2               
   255 r.259                   -1001         -1001               
   256 r.260                    2000       45.2774               

   No. Column name       Activity     Lower bound   Upper bound
------ ------------    ------------- ------------- -------------
     1 tt                    54.5706             0               
     2 s_1_1        *              0             0             1 
     3 t_1_1                 1044.47             0               
     4 s_2_1        *              1             0             1 
     5 t_2_1                 32.0493             0               
     6 s_1_2        *              0             0             1 
     7 t_1_2                 9.53483             0               
     8 s_2_2        *              1             0             1 
     9 t_2_2                 9.53483             0               
    10 s_1_3        *              1             0             1 
    11 t_1_3                 25.9312             0               
    12 s_2_3        *              0             0             1 
    13 t_2_3                 9.53483             0               
    14 s_1_4        *              1             0             1 
    15 t_1_4                 38.4514             0               
    16 s_2_4        *              0             0             1 
    17 t_2_4                 38.4514             0               
    18 s_1_5        *              1             0             1 
    19 t_1_5                 44.7003             0               
    20 s_2_5        *              0             0             1 
    21 t_2_5                 25.9312             0               
    22 s_1_6        *              1             0             1 
    23 t_1_6                 53.1295             0               
    24 s_2_6        *              0             0             1 
    25 t_2_6                 53.1295             0               
    26 s_1_7        *              1             0             1 
    27 t_1_7                       0             0               
    28 s_2_7        *              0             0             1 
    29 t_2_7                       0             0               
    30 s_1_8        *              0             0             1 
    31 t_1_8                       0             0               
    32 s_2_8        *              1             0             1 
    33 t_2_8                       0             0               
    34 r_1_1_2      *              1             0             1 
    35 u_1_1_2      *              0             0             1 
    36 r_2_1_2      *              0             0             1 
    37 u_2_1_2      *              1             0             1 
    38 r_1_1_3      *              1             0             1 
    39 u_1_1_3      *              0             0             1 
    40 r_2_1_3      *              1             0             1 
    41 u_2_1_3      *              0             0             1 
    42 r_1_1_4      *              1             0             1 
    43 u_1_1_4      *              0             0             1 
    44 r_2_1_4      *              1             0             1 
    45 u_2_1_4      *              0             0             1 
    46 r_1_1_5      *              1             0             1 
    47 u_1_1_5      *              0             0             1 
    48 r_2_1_5      *              1             0             1 
    49 u_2_1_5      *              0             0             1 
    50 r_1_1_8      *              1             0             1 
    51 u_1_1_8      *              0             0             1 
    52 r_2_1_8      *              0             0             1 
    53 u_2_1_8      *              1             0             1 
    54 r_1_2_3      *              1             0             1 
    55 u_1_2_3      *              0             0             1 
    56 r_2_2_3      *              1             0             1 
    57 u_2_2_3      *              0             0             1 
    58 r_1_2_4      *              1             0             1 
    59 u_1_2_4      *              0             0             1 
    60 r_2_2_4      *              1             0             1 
    61 u_2_2_4      *              0             0             1 
    62 r_1_2_5      *              1             0             1 
    63 u_1_2_5      *              0             0             1 
    64 r_2_2_5      *              1             0             1 
    65 u_2_2_5      *              0             0             1 
    66 r_1_2_7      *              1             0             1 
    67 u_1_2_7      *              0             0             1 
    68 r_2_2_7      *              1             0             1 
    69 u_2_2_7      *              0             0             1 
    70 r_1_3_5      *              0             0             1 
    71 u_1_3_5      *              0             0             1 
    72 r_2_3_5      *              1             0             1 
    73 u_2_3_5      *              0             0             1 
    74 r_1_3_7      *              0             0             1 
    75 u_1_3_7      *              1             0             1 
    76 r_2_3_7      *              1             0             1 
    77 u_2_3_7      *              0             0             1 
    78 r_1_4_5      *              0             0             1 
    79 u_1_4_5      *              0             0             1 
    80 r_2_4_5      *              1             0             1 
    81 u_2_4_5      *              0             0             1 
    82 r_1_4_7      *              0             0             1 
    83 u_1_4_7      *              1             0             1 
    84 r_2_4_7      *              1             0             1 
    85 u_2_4_7      *              0             0             1 
    86 r_1_7_8      *              1             0             1 
    87 u_1_7_8      *              0             0             1 
    88 r_2_7_8      *              1             0             1 
    89 u_2_7_8      *              0             0             1 

Integer feasibility conditions:

KKT.PE: max.abs.err = 2.27e-13 on row 22
        max.rel.err = 1.08e-16 on row 22
        High quality

KKT.PB: max.abs.err = 0.00e+00 on row 0
        max.rel.err = 0.00e+00 on row 0
        High quality

End of output
